 &control
    calculation='scf'
    prefix='si'
    restart_mode='from_scratch'
    pseudo_dir='../../pp'
    outdir='./tmp_##NUMBER##'
    tprnfor=.true.
    tstress=.true.
    wf_collect=.false.
 /
 &system
    ibrav           = 0
    nat             = ##NATOMS##
    ntyp            = 1
    ecutwfc         = 45
 /
 &electrons
    diagonalization = 'david'
    mixing_beta     = 0.7
    conv_thr        = 1.0d-10
 /
ATOMIC_SPECIES
  Si  28.0855  Si.pz-vbc.UPF
##COORDINATES##
K_POINTS gamma
##CELL##
