 &control
    calculation     = 'nscf'
    prefix          = 'si'
    restart_mode    = 'from_scratch'
    pseudo_dir      = '../pp'
    outdir          = '<enter epw output directory>'
    tprnfor         = .true.
    tstress         = .true.
    verbosity='high'
 /
 &system
    ibrav           = 2
    celldm(1)       = 10.20830394762 ! expt. value = 10.26
    nat             = 2
    ntyp            = 1
    ecutwfc         = 45
    nbnd            = 14
 /
 &electrons
    diagonalization = 'david'
    mixing_beta     = 0.7
    conv_thr        = 1.0d-12
 /
ATOMIC_SPECIES
  Si  28.086  Si.pz-vbc.UPF
ATOMIC_POSITIONS crystal
  Si   0.00  0.00  0.00
  Si   0.25  0.25  0.25

K_POINTS crystal
1728
  0.00000000  0.00000000  0.00000000  5.787037e-04 
  0.00000000  0.00000000  0.08333333  5.787037e-04 
  0.00000000  0.00000000  0.16666667  5.787037e-04 
  0.00000000  0.00000000  0.25000000  5.787037e-04 
  0.00000000  0.00000000  0.33333333  5.787037e-04 
  0.00000000  0.00000000  0.41666667  5.787037e-04 
  0.00000000  0.00000000  0.50000000  5.787037e-04 
  0.00000000  0.00000000  0.58333333  5.787037e-04 
  0.00000000  0.00000000  0.66666667  5.787037e-04 
  0.00000000  0.00000000  0.75000000  5.787037e-04 
  0.00000000  0.00000000  0.83333333  5.787037e-04 
  0.00000000  0.00000000  0.91666667  5.787037e-04 
  0.00000000  0.08333333  0.00000000  5.787037e-04 
  0.00000000  0.08333333  0.08333333  5.787037e-04 
  0.00000000  0.08333333  0.16666667  5.787037e-04 
  0.00000000  0.08333333  0.25000000  5.787037e-04 
  0.00000000  0.08333333  0.33333333  5.787037e-04 
  0.00000000  0.08333333  0.41666667  5.787037e-04 
  0.00000000  0.08333333  0.50000000  5.787037e-04 
  0.00000000  0.08333333  0.58333333  5.787037e-04 
  0.00000000  0.08333333  0.66666667  5.787037e-04 
  0.00000000  0.08333333  0.75000000  5.787037e-04 
  0.00000000  0.08333333  0.83333333  5.787037e-04 
  0.00000000  0.08333333  0.91666667  5.787037e-04 
  0.00000000  0.16666667  0.00000000  5.787037e-04 
  0.00000000  0.16666667  0.08333333  5.787037e-04 
  0.00000000  0.16666667  0.16666667  5.787037e-04 
  0.00000000  0.16666667  0.25000000  5.787037e-04 
  0.00000000  0.16666667  0.33333333  5.787037e-04 
  0.00000000  0.16666667  0.41666667  5.787037e-04 
  0.00000000  0.16666667  0.50000000  5.787037e-04 
  0.00000000  0.16666667  0.58333333  5.787037e-04 
  0.00000000  0.16666667  0.66666667  5.787037e-04 
  0.00000000  0.16666667  0.75000000  5.787037e-04 
  0.00000000  0.16666667  0.83333333  5.787037e-04 
  0.00000000  0.16666667  0.91666667  5.787037e-04 
  0.00000000  0.25000000  0.00000000  5.787037e-04 
  0.00000000  0.25000000  0.08333333  5.787037e-04 
  0.00000000  0.25000000  0.16666667  5.787037e-04 
  0.00000000  0.25000000  0.25000000  5.787037e-04 
  0.00000000  0.25000000  0.33333333  5.787037e-04 
  0.00000000  0.25000000  0.41666667  5.787037e-04 
  0.00000000  0.25000000  0.50000000  5.787037e-04 
  0.00000000  0.25000000  0.58333333  5.787037e-04 
  0.00000000  0.25000000  0.66666667  5.787037e-04 
  0.00000000  0.25000000  0.75000000  5.787037e-04 
  0.00000000  0.25000000  0.83333333  5.787037e-04 
  0.00000000  0.25000000  0.91666667  5.787037e-04 
  0.00000000  0.33333333  0.00000000  5.787037e-04 
  0.00000000  0.33333333  0.08333333  5.787037e-04 
  0.00000000  0.33333333  0.16666667  5.787037e-04 
  0.00000000  0.33333333  0.25000000  5.787037e-04 
  0.00000000  0.33333333  0.33333333  5.787037e-04 
  0.00000000  0.33333333  0.41666667  5.787037e-04 
  0.00000000  0.33333333  0.50000000  5.787037e-04 
  0.00000000  0.33333333  0.58333333  5.787037e-04 
  0.00000000  0.33333333  0.66666667  5.787037e-04 
  0.00000000  0.33333333  0.75000000  5.787037e-04 
  0.00000000  0.33333333  0.83333333  5.787037e-04 
  0.00000000  0.33333333  0.91666667  5.787037e-04 
  0.00000000  0.41666667  0.00000000  5.787037e-04 
  0.00000000  0.41666667  0.08333333  5.787037e-04 
  0.00000000  0.41666667  0.16666667  5.787037e-04 
  0.00000000  0.41666667  0.25000000  5.787037e-04 
  0.00000000  0.41666667  0.33333333  5.787037e-04 
  0.00000000  0.41666667  0.41666667  5.787037e-04 
  0.00000000  0.41666667  0.50000000  5.787037e-04 
  0.00000000  0.41666667  0.58333333  5.787037e-04 
  0.00000000  0.41666667  0.66666667  5.787037e-04 
  0.00000000  0.41666667  0.75000000  5.787037e-04 
  0.00000000  0.41666667  0.83333333  5.787037e-04 
  0.00000000  0.41666667  0.91666667  5.787037e-04 
  0.00000000  0.50000000  0.00000000  5.787037e-04 
  0.00000000  0.50000000  0.08333333  5.787037e-04 
  0.00000000  0.50000000  0.16666667  5.787037e-04 
  0.00000000  0.50000000  0.25000000  5.787037e-04 
  0.00000000  0.50000000  0.33333333  5.787037e-04 
  0.00000000  0.50000000  0.41666667  5.787037e-04 
  0.00000000  0.50000000  0.50000000  5.787037e-04 
  0.00000000  0.50000000  0.58333333  5.787037e-04 
  0.00000000  0.50000000  0.66666667  5.787037e-04 
  0.00000000  0.50000000  0.75000000  5.787037e-04 
  0.00000000  0.50000000  0.83333333  5.787037e-04 
  0.00000000  0.50000000  0.91666667  5.787037e-04 
  0.00000000  0.58333333  0.00000000  5.787037e-04 
  0.00000000  0.58333333  0.08333333  5.787037e-04 
  0.00000000  0.58333333  0.16666667  5.787037e-04 
  0.00000000  0.58333333  0.25000000  5.787037e-04 
  0.00000000  0.58333333  0.33333333  5.787037e-04 
  0.00000000  0.58333333  0.41666667  5.787037e-04 
  0.00000000  0.58333333  0.50000000  5.787037e-04 
  0.00000000  0.58333333  0.58333333  5.787037e-04 
  0.00000000  0.58333333  0.66666667  5.787037e-04 
  0.00000000  0.58333333  0.75000000  5.787037e-04 
  0.00000000  0.58333333  0.83333333  5.787037e-04 
  0.00000000  0.58333333  0.91666667  5.787037e-04 
  0.00000000  0.66666667  0.00000000  5.787037e-04 
  0.00000000  0.66666667  0.08333333  5.787037e-04 
  0.00000000  0.66666667  0.16666667  5.787037e-04 
  0.00000000  0.66666667  0.25000000  5.787037e-04 
  0.00000000  0.66666667  0.33333333  5.787037e-04 
  0.00000000  0.66666667  0.41666667  5.787037e-04 
  0.00000000  0.66666667  0.50000000  5.787037e-04 
  0.00000000  0.66666667  0.58333333  5.787037e-04 
  0.00000000  0.66666667  0.66666667  5.787037e-04 
  0.00000000  0.66666667  0.75000000  5.787037e-04 
  0.00000000  0.66666667  0.83333333  5.787037e-04 
  0.00000000  0.66666667  0.91666667  5.787037e-04 
  0.00000000  0.75000000  0.00000000  5.787037e-04 
  0.00000000  0.75000000  0.08333333  5.787037e-04 
  0.00000000  0.75000000  0.16666667  5.787037e-04 
  0.00000000  0.75000000  0.25000000  5.787037e-04 
  0.00000000  0.75000000  0.33333333  5.787037e-04 
  0.00000000  0.75000000  0.41666667  5.787037e-04 
  0.00000000  0.75000000  0.50000000  5.787037e-04 
  0.00000000  0.75000000  0.58333333  5.787037e-04 
  0.00000000  0.75000000  0.66666667  5.787037e-04 
  0.00000000  0.75000000  0.75000000  5.787037e-04 
  0.00000000  0.75000000  0.83333333  5.787037e-04 
  0.00000000  0.75000000  0.91666667  5.787037e-04 
  0.00000000  0.83333333  0.00000000  5.787037e-04 
  0.00000000  0.83333333  0.08333333  5.787037e-04 
  0.00000000  0.83333333  0.16666667  5.787037e-04 
  0.00000000  0.83333333  0.25000000  5.787037e-04 
  0.00000000  0.83333333  0.33333333  5.787037e-04 
  0.00000000  0.83333333  0.41666667  5.787037e-04 
  0.00000000  0.83333333  0.50000000  5.787037e-04 
  0.00000000  0.83333333  0.58333333  5.787037e-04 
  0.00000000  0.83333333  0.66666667  5.787037e-04 
  0.00000000  0.83333333  0.75000000  5.787037e-04 
  0.00000000  0.83333333  0.83333333  5.787037e-04 
  0.00000000  0.83333333  0.91666667  5.787037e-04 
  0.00000000  0.91666667  0.00000000  5.787037e-04 
  0.00000000  0.91666667  0.08333333  5.787037e-04 
  0.00000000  0.91666667  0.16666667  5.787037e-04 
  0.00000000  0.91666667  0.25000000  5.787037e-04 
  0.00000000  0.91666667  0.33333333  5.787037e-04 
  0.00000000  0.91666667  0.41666667  5.787037e-04 
  0.00000000  0.91666667  0.50000000  5.787037e-04 
  0.00000000  0.91666667  0.58333333  5.787037e-04 
  0.00000000  0.91666667  0.66666667  5.787037e-04 
  0.00000000  0.91666667  0.75000000  5.787037e-04 
  0.00000000  0.91666667  0.83333333  5.787037e-04 
  0.00000000  0.91666667  0.91666667  5.787037e-04 
  0.08333333  0.00000000  0.00000000  5.787037e-04 
  0.08333333  0.00000000  0.08333333  5.787037e-04 
  0.08333333  0.00000000  0.16666667  5.787037e-04 
  0.08333333  0.00000000  0.25000000  5.787037e-04 
  0.08333333  0.00000000  0.33333333  5.787037e-04 
  0.08333333  0.00000000  0.41666667  5.787037e-04 
  0.08333333  0.00000000  0.50000000  5.787037e-04 
  0.08333333  0.00000000  0.58333333  5.787037e-04 
  0.08333333  0.00000000  0.66666667  5.787037e-04 
  0.08333333  0.00000000  0.75000000  5.787037e-04 
  0.08333333  0.00000000  0.83333333  5.787037e-04 
  0.08333333  0.00000000  0.91666667  5.787037e-04 
  0.08333333  0.08333333  0.00000000  5.787037e-04 
  0.08333333  0.08333333  0.08333333  5.787037e-04 
  0.08333333  0.08333333  0.16666667  5.787037e-04 
  0.08333333  0.08333333  0.25000000  5.787037e-04 
  0.08333333  0.08333333  0.33333333  5.787037e-04 
  0.08333333  0.08333333  0.41666667  5.787037e-04 
  0.08333333  0.08333333  0.50000000  5.787037e-04 
  0.08333333  0.08333333  0.58333333  5.787037e-04 
  0.08333333  0.08333333  0.66666667  5.787037e-04 
  0.08333333  0.08333333  0.75000000  5.787037e-04 
  0.08333333  0.08333333  0.83333333  5.787037e-04 
  0.08333333  0.08333333  0.91666667  5.787037e-04 
  0.08333333  0.16666667  0.00000000  5.787037e-04 
  0.08333333  0.16666667  0.08333333  5.787037e-04 
  0.08333333  0.16666667  0.16666667  5.787037e-04 
  0.08333333  0.16666667  0.25000000  5.787037e-04 
  0.08333333  0.16666667  0.33333333  5.787037e-04 
  0.08333333  0.16666667  0.41666667  5.787037e-04 
  0.08333333  0.16666667  0.50000000  5.787037e-04 
  0.08333333  0.16666667  0.58333333  5.787037e-04 
  0.08333333  0.16666667  0.66666667  5.787037e-04 
  0.08333333  0.16666667  0.75000000  5.787037e-04 
  0.08333333  0.16666667  0.83333333  5.787037e-04 
  0.08333333  0.16666667  0.91666667  5.787037e-04 
  0.08333333  0.25000000  0.00000000  5.787037e-04 
  0.08333333  0.25000000  0.08333333  5.787037e-04 
  0.08333333  0.25000000  0.16666667  5.787037e-04 
  0.08333333  0.25000000  0.25000000  5.787037e-04 
  0.08333333  0.25000000  0.33333333  5.787037e-04 
  0.08333333  0.25000000  0.41666667  5.787037e-04 
  0.08333333  0.25000000  0.50000000  5.787037e-04 
  0.08333333  0.25000000  0.58333333  5.787037e-04 
  0.08333333  0.25000000  0.66666667  5.787037e-04 
  0.08333333  0.25000000  0.75000000  5.787037e-04 
  0.08333333  0.25000000  0.83333333  5.787037e-04 
  0.08333333  0.25000000  0.91666667  5.787037e-04 
  0.08333333  0.33333333  0.00000000  5.787037e-04 
  0.08333333  0.33333333  0.08333333  5.787037e-04 
  0.08333333  0.33333333  0.16666667  5.787037e-04 
  0.08333333  0.33333333  0.25000000  5.787037e-04 
  0.08333333  0.33333333  0.33333333  5.787037e-04 
  0.08333333  0.33333333  0.41666667  5.787037e-04 
  0.08333333  0.33333333  0.50000000  5.787037e-04 
  0.08333333  0.33333333  0.58333333  5.787037e-04 
  0.08333333  0.33333333  0.66666667  5.787037e-04 
  0.08333333  0.33333333  0.75000000  5.787037e-04 
  0.08333333  0.33333333  0.83333333  5.787037e-04 
  0.08333333  0.33333333  0.91666667  5.787037e-04 
  0.08333333  0.41666667  0.00000000  5.787037e-04 
  0.08333333  0.41666667  0.08333333  5.787037e-04 
  0.08333333  0.41666667  0.16666667  5.787037e-04 
  0.08333333  0.41666667  0.25000000  5.787037e-04 
  0.08333333  0.41666667  0.33333333  5.787037e-04 
  0.08333333  0.41666667  0.41666667  5.787037e-04 
  0.08333333  0.41666667  0.50000000  5.787037e-04 
  0.08333333  0.41666667  0.58333333  5.787037e-04 
  0.08333333  0.41666667  0.66666667  5.787037e-04 
  0.08333333  0.41666667  0.75000000  5.787037e-04 
  0.08333333  0.41666667  0.83333333  5.787037e-04 
  0.08333333  0.41666667  0.91666667  5.787037e-04 
  0.08333333  0.50000000  0.00000000  5.787037e-04 
  0.08333333  0.50000000  0.08333333  5.787037e-04 
  0.08333333  0.50000000  0.16666667  5.787037e-04 
  0.08333333  0.50000000  0.25000000  5.787037e-04 
  0.08333333  0.50000000  0.33333333  5.787037e-04 
  0.08333333  0.50000000  0.41666667  5.787037e-04 
  0.08333333  0.50000000  0.50000000  5.787037e-04 
  0.08333333  0.50000000  0.58333333  5.787037e-04 
  0.08333333  0.50000000  0.66666667  5.787037e-04 
  0.08333333  0.50000000  0.75000000  5.787037e-04 
  0.08333333  0.50000000  0.83333333  5.787037e-04 
  0.08333333  0.50000000  0.91666667  5.787037e-04 
  0.08333333  0.58333333  0.00000000  5.787037e-04 
  0.08333333  0.58333333  0.08333333  5.787037e-04 
  0.08333333  0.58333333  0.16666667  5.787037e-04 
  0.08333333  0.58333333  0.25000000  5.787037e-04 
  0.08333333  0.58333333  0.33333333  5.787037e-04 
  0.08333333  0.58333333  0.41666667  5.787037e-04 
  0.08333333  0.58333333  0.50000000  5.787037e-04 
  0.08333333  0.58333333  0.58333333  5.787037e-04 
  0.08333333  0.58333333  0.66666667  5.787037e-04 
  0.08333333  0.58333333  0.75000000  5.787037e-04 
  0.08333333  0.58333333  0.83333333  5.787037e-04 
  0.08333333  0.58333333  0.91666667  5.787037e-04 
  0.08333333  0.66666667  0.00000000  5.787037e-04 
  0.08333333  0.66666667  0.08333333  5.787037e-04 
  0.08333333  0.66666667  0.16666667  5.787037e-04 
  0.08333333  0.66666667  0.25000000  5.787037e-04 
  0.08333333  0.66666667  0.33333333  5.787037e-04 
  0.08333333  0.66666667  0.41666667  5.787037e-04 
  0.08333333  0.66666667  0.50000000  5.787037e-04 
  0.08333333  0.66666667  0.58333333  5.787037e-04 
  0.08333333  0.66666667  0.66666667  5.787037e-04 
  0.08333333  0.66666667  0.75000000  5.787037e-04 
  0.08333333  0.66666667  0.83333333  5.787037e-04 
  0.08333333  0.66666667  0.91666667  5.787037e-04 
  0.08333333  0.75000000  0.00000000  5.787037e-04 
  0.08333333  0.75000000  0.08333333  5.787037e-04 
  0.08333333  0.75000000  0.16666667  5.787037e-04 
  0.08333333  0.75000000  0.25000000  5.787037e-04 
  0.08333333  0.75000000  0.33333333  5.787037e-04 
  0.08333333  0.75000000  0.41666667  5.787037e-04 
  0.08333333  0.75000000  0.50000000  5.787037e-04 
  0.08333333  0.75000000  0.58333333  5.787037e-04 
  0.08333333  0.75000000  0.66666667  5.787037e-04 
  0.08333333  0.75000000  0.75000000  5.787037e-04 
  0.08333333  0.75000000  0.83333333  5.787037e-04 
  0.08333333  0.75000000  0.91666667  5.787037e-04 
  0.08333333  0.83333333  0.00000000  5.787037e-04 
  0.08333333  0.83333333  0.08333333  5.787037e-04 
  0.08333333  0.83333333  0.16666667  5.787037e-04 
  0.08333333  0.83333333  0.25000000  5.787037e-04 
  0.08333333  0.83333333  0.33333333  5.787037e-04 
  0.08333333  0.83333333  0.41666667  5.787037e-04 
  0.08333333  0.83333333  0.50000000  5.787037e-04 
  0.08333333  0.83333333  0.58333333  5.787037e-04 
  0.08333333  0.83333333  0.66666667  5.787037e-04 
  0.08333333  0.83333333  0.75000000  5.787037e-04 
  0.08333333  0.83333333  0.83333333  5.787037e-04 
  0.08333333  0.83333333  0.91666667  5.787037e-04 
  0.08333333  0.91666667  0.00000000  5.787037e-04 
  0.08333333  0.91666667  0.08333333  5.787037e-04 
  0.08333333  0.91666667  0.16666667  5.787037e-04 
  0.08333333  0.91666667  0.25000000  5.787037e-04 
  0.08333333  0.91666667  0.33333333  5.787037e-04 
  0.08333333  0.91666667  0.41666667  5.787037e-04 
  0.08333333  0.91666667  0.50000000  5.787037e-04 
  0.08333333  0.91666667  0.58333333  5.787037e-04 
  0.08333333  0.91666667  0.66666667  5.787037e-04 
  0.08333333  0.91666667  0.75000000  5.787037e-04 
  0.08333333  0.91666667  0.83333333  5.787037e-04 
  0.08333333  0.91666667  0.91666667  5.787037e-04 
  0.16666667  0.00000000  0.00000000  5.787037e-04 
  0.16666667  0.00000000  0.08333333  5.787037e-04 
  0.16666667  0.00000000  0.16666667  5.787037e-04 
  0.16666667  0.00000000  0.25000000  5.787037e-04 
  0.16666667  0.00000000  0.33333333  5.787037e-04 
  0.16666667  0.00000000  0.41666667  5.787037e-04 
  0.16666667  0.00000000  0.50000000  5.787037e-04 
  0.16666667  0.00000000  0.58333333  5.787037e-04 
  0.16666667  0.00000000  0.66666667  5.787037e-04 
  0.16666667  0.00000000  0.75000000  5.787037e-04 
  0.16666667  0.00000000  0.83333333  5.787037e-04 
  0.16666667  0.00000000  0.91666667  5.787037e-04 
  0.16666667  0.08333333  0.00000000  5.787037e-04 
  0.16666667  0.08333333  0.08333333  5.787037e-04 
  0.16666667  0.08333333  0.16666667  5.787037e-04 
  0.16666667  0.08333333  0.25000000  5.787037e-04 
  0.16666667  0.08333333  0.33333333  5.787037e-04 
  0.16666667  0.08333333  0.41666667  5.787037e-04 
  0.16666667  0.08333333  0.50000000  5.787037e-04 
  0.16666667  0.08333333  0.58333333  5.787037e-04 
  0.16666667  0.08333333  0.66666667  5.787037e-04 
  0.16666667  0.08333333  0.75000000  5.787037e-04 
  0.16666667  0.08333333  0.83333333  5.787037e-04 
  0.16666667  0.08333333  0.91666667  5.787037e-04 
  0.16666667  0.16666667  0.00000000  5.787037e-04 
  0.16666667  0.16666667  0.08333333  5.787037e-04 
  0.16666667  0.16666667  0.16666667  5.787037e-04 
  0.16666667  0.16666667  0.25000000  5.787037e-04 
  0.16666667  0.16666667  0.33333333  5.787037e-04 
  0.16666667  0.16666667  0.41666667  5.787037e-04 
  0.16666667  0.16666667  0.50000000  5.787037e-04 
  0.16666667  0.16666667  0.58333333  5.787037e-04 
  0.16666667  0.16666667  0.66666667  5.787037e-04 
  0.16666667  0.16666667  0.75000000  5.787037e-04 
  0.16666667  0.16666667  0.83333333  5.787037e-04 
  0.16666667  0.16666667  0.91666667  5.787037e-04 
  0.16666667  0.25000000  0.00000000  5.787037e-04 
  0.16666667  0.25000000  0.08333333  5.787037e-04 
  0.16666667  0.25000000  0.16666667  5.787037e-04 
  0.16666667  0.25000000  0.25000000  5.787037e-04 
  0.16666667  0.25000000  0.33333333  5.787037e-04 
  0.16666667  0.25000000  0.41666667  5.787037e-04 
  0.16666667  0.25000000  0.50000000  5.787037e-04 
  0.16666667  0.25000000  0.58333333  5.787037e-04 
  0.16666667  0.25000000  0.66666667  5.787037e-04 
  0.16666667  0.25000000  0.75000000  5.787037e-04 
  0.16666667  0.25000000  0.83333333  5.787037e-04 
  0.16666667  0.25000000  0.91666667  5.787037e-04 
  0.16666667  0.33333333  0.00000000  5.787037e-04 
  0.16666667  0.33333333  0.08333333  5.787037e-04 
  0.16666667  0.33333333  0.16666667  5.787037e-04 
  0.16666667  0.33333333  0.25000000  5.787037e-04 
  0.16666667  0.33333333  0.33333333  5.787037e-04 
  0.16666667  0.33333333  0.41666667  5.787037e-04 
  0.16666667  0.33333333  0.50000000  5.787037e-04 
  0.16666667  0.33333333  0.58333333  5.787037e-04 
  0.16666667  0.33333333  0.66666667  5.787037e-04 
  0.16666667  0.33333333  0.75000000  5.787037e-04 
  0.16666667  0.33333333  0.83333333  5.787037e-04 
  0.16666667  0.33333333  0.91666667  5.787037e-04 
  0.16666667  0.41666667  0.00000000  5.787037e-04 
  0.16666667  0.41666667  0.08333333  5.787037e-04 
  0.16666667  0.41666667  0.16666667  5.787037e-04 
  0.16666667  0.41666667  0.25000000  5.787037e-04 
  0.16666667  0.41666667  0.33333333  5.787037e-04 
  0.16666667  0.41666667  0.41666667  5.787037e-04 
  0.16666667  0.41666667  0.50000000  5.787037e-04 
  0.16666667  0.41666667  0.58333333  5.787037e-04 
  0.16666667  0.41666667  0.66666667  5.787037e-04 
  0.16666667  0.41666667  0.75000000  5.787037e-04 
  0.16666667  0.41666667  0.83333333  5.787037e-04 
  0.16666667  0.41666667  0.91666667  5.787037e-04 
  0.16666667  0.50000000  0.00000000  5.787037e-04 
  0.16666667  0.50000000  0.08333333  5.787037e-04 
  0.16666667  0.50000000  0.16666667  5.787037e-04 
  0.16666667  0.50000000  0.25000000  5.787037e-04 
  0.16666667  0.50000000  0.33333333  5.787037e-04 
  0.16666667  0.50000000  0.41666667  5.787037e-04 
  0.16666667  0.50000000  0.50000000  5.787037e-04 
  0.16666667  0.50000000  0.58333333  5.787037e-04 
  0.16666667  0.50000000  0.66666667  5.787037e-04 
  0.16666667  0.50000000  0.75000000  5.787037e-04 
  0.16666667  0.50000000  0.83333333  5.787037e-04 
  0.16666667  0.50000000  0.91666667  5.787037e-04 
  0.16666667  0.58333333  0.00000000  5.787037e-04 
  0.16666667  0.58333333  0.08333333  5.787037e-04 
  0.16666667  0.58333333  0.16666667  5.787037e-04 
  0.16666667  0.58333333  0.25000000  5.787037e-04 
  0.16666667  0.58333333  0.33333333  5.787037e-04 
  0.16666667  0.58333333  0.41666667  5.787037e-04 
  0.16666667  0.58333333  0.50000000  5.787037e-04 
  0.16666667  0.58333333  0.58333333  5.787037e-04 
  0.16666667  0.58333333  0.66666667  5.787037e-04 
  0.16666667  0.58333333  0.75000000  5.787037e-04 
  0.16666667  0.58333333  0.83333333  5.787037e-04 
  0.16666667  0.58333333  0.91666667  5.787037e-04 
  0.16666667  0.66666667  0.00000000  5.787037e-04 
  0.16666667  0.66666667  0.08333333  5.787037e-04 
  0.16666667  0.66666667  0.16666667  5.787037e-04 
  0.16666667  0.66666667  0.25000000  5.787037e-04 
  0.16666667  0.66666667  0.33333333  5.787037e-04 
  0.16666667  0.66666667  0.41666667  5.787037e-04 
  0.16666667  0.66666667  0.50000000  5.787037e-04 
  0.16666667  0.66666667  0.58333333  5.787037e-04 
  0.16666667  0.66666667  0.66666667  5.787037e-04 
  0.16666667  0.66666667  0.75000000  5.787037e-04 
  0.16666667  0.66666667  0.83333333  5.787037e-04 
  0.16666667  0.66666667  0.91666667  5.787037e-04 
  0.16666667  0.75000000  0.00000000  5.787037e-04 
  0.16666667  0.75000000  0.08333333  5.787037e-04 
  0.16666667  0.75000000  0.16666667  5.787037e-04 
  0.16666667  0.75000000  0.25000000  5.787037e-04 
  0.16666667  0.75000000  0.33333333  5.787037e-04 
  0.16666667  0.75000000  0.41666667  5.787037e-04 
  0.16666667  0.75000000  0.50000000  5.787037e-04 
  0.16666667  0.75000000  0.58333333  5.787037e-04 
  0.16666667  0.75000000  0.66666667  5.787037e-04 
  0.16666667  0.75000000  0.75000000  5.787037e-04 
  0.16666667  0.75000000  0.83333333  5.787037e-04 
  0.16666667  0.75000000  0.91666667  5.787037e-04 
  0.16666667  0.83333333  0.00000000  5.787037e-04 
  0.16666667  0.83333333  0.08333333  5.787037e-04 
  0.16666667  0.83333333  0.16666667  5.787037e-04 
  0.16666667  0.83333333  0.25000000  5.787037e-04 
  0.16666667  0.83333333  0.33333333  5.787037e-04 
  0.16666667  0.83333333  0.41666667  5.787037e-04 
  0.16666667  0.83333333  0.50000000  5.787037e-04 
  0.16666667  0.83333333  0.58333333  5.787037e-04 
  0.16666667  0.83333333  0.66666667  5.787037e-04 
  0.16666667  0.83333333  0.75000000  5.787037e-04 
  0.16666667  0.83333333  0.83333333  5.787037e-04 
  0.16666667  0.83333333  0.91666667  5.787037e-04 
  0.16666667  0.91666667  0.00000000  5.787037e-04 
  0.16666667  0.91666667  0.08333333  5.787037e-04 
  0.16666667  0.91666667  0.16666667  5.787037e-04 
  0.16666667  0.91666667  0.25000000  5.787037e-04 
  0.16666667  0.91666667  0.33333333  5.787037e-04 
  0.16666667  0.91666667  0.41666667  5.787037e-04 
  0.16666667  0.91666667  0.50000000  5.787037e-04 
  0.16666667  0.91666667  0.58333333  5.787037e-04 
  0.16666667  0.91666667  0.66666667  5.787037e-04 
  0.16666667  0.91666667  0.75000000  5.787037e-04 
  0.16666667  0.91666667  0.83333333  5.787037e-04 
  0.16666667  0.91666667  0.91666667  5.787037e-04 
  0.25000000  0.00000000  0.00000000  5.787037e-04 
  0.25000000  0.00000000  0.08333333  5.787037e-04 
  0.25000000  0.00000000  0.16666667  5.787037e-04 
  0.25000000  0.00000000  0.25000000  5.787037e-04 
  0.25000000  0.00000000  0.33333333  5.787037e-04 
  0.25000000  0.00000000  0.41666667  5.787037e-04 
  0.25000000  0.00000000  0.50000000  5.787037e-04 
  0.25000000  0.00000000  0.58333333  5.787037e-04 
  0.25000000  0.00000000  0.66666667  5.787037e-04 
  0.25000000  0.00000000  0.75000000  5.787037e-04 
  0.25000000  0.00000000  0.83333333  5.787037e-04 
  0.25000000  0.00000000  0.91666667  5.787037e-04 
  0.25000000  0.08333333  0.00000000  5.787037e-04 
  0.25000000  0.08333333  0.08333333  5.787037e-04 
  0.25000000  0.08333333  0.16666667  5.787037e-04 
  0.25000000  0.08333333  0.25000000  5.787037e-04 
  0.25000000  0.08333333  0.33333333  5.787037e-04 
  0.25000000  0.08333333  0.41666667  5.787037e-04 
  0.25000000  0.08333333  0.50000000  5.787037e-04 
  0.25000000  0.08333333  0.58333333  5.787037e-04 
  0.25000000  0.08333333  0.66666667  5.787037e-04 
  0.25000000  0.08333333  0.75000000  5.787037e-04 
  0.25000000  0.08333333  0.83333333  5.787037e-04 
  0.25000000  0.08333333  0.91666667  5.787037e-04 
  0.25000000  0.16666667  0.00000000  5.787037e-04 
  0.25000000  0.16666667  0.08333333  5.787037e-04 
  0.25000000  0.16666667  0.16666667  5.787037e-04 
  0.25000000  0.16666667  0.25000000  5.787037e-04 
  0.25000000  0.16666667  0.33333333  5.787037e-04 
  0.25000000  0.16666667  0.41666667  5.787037e-04 
  0.25000000  0.16666667  0.50000000  5.787037e-04 
  0.25000000  0.16666667  0.58333333  5.787037e-04 
  0.25000000  0.16666667  0.66666667  5.787037e-04 
  0.25000000  0.16666667  0.75000000  5.787037e-04 
  0.25000000  0.16666667  0.83333333  5.787037e-04 
  0.25000000  0.16666667  0.91666667  5.787037e-04 
  0.25000000  0.25000000  0.00000000  5.787037e-04 
  0.25000000  0.25000000  0.08333333  5.787037e-04 
  0.25000000  0.25000000  0.16666667  5.787037e-04 
  0.25000000  0.25000000  0.25000000  5.787037e-04 
  0.25000000  0.25000000  0.33333333  5.787037e-04 
  0.25000000  0.25000000  0.41666667  5.787037e-04 
  0.25000000  0.25000000  0.50000000  5.787037e-04 
  0.25000000  0.25000000  0.58333333  5.787037e-04 
  0.25000000  0.25000000  0.66666667  5.787037e-04 
  0.25000000  0.25000000  0.75000000  5.787037e-04 
  0.25000000  0.25000000  0.83333333  5.787037e-04 
  0.25000000  0.25000000  0.91666667  5.787037e-04 
  0.25000000  0.33333333  0.00000000  5.787037e-04 
  0.25000000  0.33333333  0.08333333  5.787037e-04 
  0.25000000  0.33333333  0.16666667  5.787037e-04 
  0.25000000  0.33333333  0.25000000  5.787037e-04 
  0.25000000  0.33333333  0.33333333  5.787037e-04 
  0.25000000  0.33333333  0.41666667  5.787037e-04 
  0.25000000  0.33333333  0.50000000  5.787037e-04 
  0.25000000  0.33333333  0.58333333  5.787037e-04 
  0.25000000  0.33333333  0.66666667  5.787037e-04 
  0.25000000  0.33333333  0.75000000  5.787037e-04 
  0.25000000  0.33333333  0.83333333  5.787037e-04 
  0.25000000  0.33333333  0.91666667  5.787037e-04 
  0.25000000  0.41666667  0.00000000  5.787037e-04 
  0.25000000  0.41666667  0.08333333  5.787037e-04 
  0.25000000  0.41666667  0.16666667  5.787037e-04 
  0.25000000  0.41666667  0.25000000  5.787037e-04 
  0.25000000  0.41666667  0.33333333  5.787037e-04 
  0.25000000  0.41666667  0.41666667  5.787037e-04 
  0.25000000  0.41666667  0.50000000  5.787037e-04 
  0.25000000  0.41666667  0.58333333  5.787037e-04 
  0.25000000  0.41666667  0.66666667  5.787037e-04 
  0.25000000  0.41666667  0.75000000  5.787037e-04 
  0.25000000  0.41666667  0.83333333  5.787037e-04 
  0.25000000  0.41666667  0.91666667  5.787037e-04 
  0.25000000  0.50000000  0.00000000  5.787037e-04 
  0.25000000  0.50000000  0.08333333  5.787037e-04 
  0.25000000  0.50000000  0.16666667  5.787037e-04 
  0.25000000  0.50000000  0.25000000  5.787037e-04 
  0.25000000  0.50000000  0.33333333  5.787037e-04 
  0.25000000  0.50000000  0.41666667  5.787037e-04 
  0.25000000  0.50000000  0.50000000  5.787037e-04 
  0.25000000  0.50000000  0.58333333  5.787037e-04 
  0.25000000  0.50000000  0.66666667  5.787037e-04 
  0.25000000  0.50000000  0.75000000  5.787037e-04 
  0.25000000  0.50000000  0.83333333  5.787037e-04 
  0.25000000  0.50000000  0.91666667  5.787037e-04 
  0.25000000  0.58333333  0.00000000  5.787037e-04 
  0.25000000  0.58333333  0.08333333  5.787037e-04 
  0.25000000  0.58333333  0.16666667  5.787037e-04 
  0.25000000  0.58333333  0.25000000  5.787037e-04 
  0.25000000  0.58333333  0.33333333  5.787037e-04 
  0.25000000  0.58333333  0.41666667  5.787037e-04 
  0.25000000  0.58333333  0.50000000  5.787037e-04 
  0.25000000  0.58333333  0.58333333  5.787037e-04 
  0.25000000  0.58333333  0.66666667  5.787037e-04 
  0.25000000  0.58333333  0.75000000  5.787037e-04 
  0.25000000  0.58333333  0.83333333  5.787037e-04 
  0.25000000  0.58333333  0.91666667  5.787037e-04 
  0.25000000  0.66666667  0.00000000  5.787037e-04 
  0.25000000  0.66666667  0.08333333  5.787037e-04 
  0.25000000  0.66666667  0.16666667  5.787037e-04 
  0.25000000  0.66666667  0.25000000  5.787037e-04 
  0.25000000  0.66666667  0.33333333  5.787037e-04 
  0.25000000  0.66666667  0.41666667  5.787037e-04 
  0.25000000  0.66666667  0.50000000  5.787037e-04 
  0.25000000  0.66666667  0.58333333  5.787037e-04 
  0.25000000  0.66666667  0.66666667  5.787037e-04 
  0.25000000  0.66666667  0.75000000  5.787037e-04 
  0.25000000  0.66666667  0.83333333  5.787037e-04 
  0.25000000  0.66666667  0.91666667  5.787037e-04 
  0.25000000  0.75000000  0.00000000  5.787037e-04 
  0.25000000  0.75000000  0.08333333  5.787037e-04 
  0.25000000  0.75000000  0.16666667  5.787037e-04 
  0.25000000  0.75000000  0.25000000  5.787037e-04 
  0.25000000  0.75000000  0.33333333  5.787037e-04 
  0.25000000  0.75000000  0.41666667  5.787037e-04 
  0.25000000  0.75000000  0.50000000  5.787037e-04 
  0.25000000  0.75000000  0.58333333  5.787037e-04 
  0.25000000  0.75000000  0.66666667  5.787037e-04 
  0.25000000  0.75000000  0.75000000  5.787037e-04 
  0.25000000  0.75000000  0.83333333  5.787037e-04 
  0.25000000  0.75000000  0.91666667  5.787037e-04 
  0.25000000  0.83333333  0.00000000  5.787037e-04 
  0.25000000  0.83333333  0.08333333  5.787037e-04 
  0.25000000  0.83333333  0.16666667  5.787037e-04 
  0.25000000  0.83333333  0.25000000  5.787037e-04 
  0.25000000  0.83333333  0.33333333  5.787037e-04 
  0.25000000  0.83333333  0.41666667  5.787037e-04 
  0.25000000  0.83333333  0.50000000  5.787037e-04 
  0.25000000  0.83333333  0.58333333  5.787037e-04 
  0.25000000  0.83333333  0.66666667  5.787037e-04 
  0.25000000  0.83333333  0.75000000  5.787037e-04 
  0.25000000  0.83333333  0.83333333  5.787037e-04 