 &control
    calculation     = 'scf'
    prefix          = 'si'
    restart_mode    = 'from_scratch'
    wf_collect      = .false.
    pseudo_dir      = '../pp'
    outdir          = '<enter epw output directory>'
    tprnfor         = .true.
    tstress         = .true.
 /
 &system
    ibrav           = 2
    celldm(1)       = 10.20830394762 ! expt. value = 10.26 bohr
    nat             = 2
    ntyp            = 1
    ecutwfc         = 45
    nbnd            = 8
 /
 &electrons
    diagonalization = 'david'
    mixing_beta     = 0.7
    conv_thr        = 1.0d-13
 /
ATOMIC_SPECIES
  Si  28.086  Si.pz-vbc.UPF
ATOMIC_POSITIONS crystal
  Si   0.00  0.00  0.00
  Si   0.25  0.25  0.25
K_POINTS automatic
12 12 12 0 0 0

